3 
4  34 49 
5  02 20 38 58 
6  13 28 40 55 
7  10 25 40 55 
8  10 25 40 55 
9  10 25 40 55 
10  10 25 40 55 
11  10 25 40 55 
12  10 25 40 55 
13  11 26 41 56 
14  11 26 41 56 
15  11 26 41 56 
16  11 26 41 56 
17  11 26 41 56 
18  11 26 41 56 
19  10 25 40 55 
20  10 25 40 55 
21  10 25 40 55 
22  10 25 40 55 
23  09 31 
0 
